NAME : prob35b
TYPE : PDTSP
DIMENSION : 71
EDGE_WEIGHT_TYPE : EUC_2D
NODE_COORD_SECTION
1 297 37
2 767 727
3 697 199
4 262 545
5 623 925
6 381 411
7 986 534
8 833 204
9 81 513
10 922 626
11 340 775
12 234 308
13 159 219
14 945 615
15 707 32
16 802 593
17 430 325
18 131 2
19 249 943
20 897 654
21 848 241
22 796 718
23 609 400
24 122 465
25 657 373
26 68 133
27 468 919
28 764 501
29 862 681
30 679 185
31 129 920
32 522 946
33 987 30
34 19 926
35 115 214
36 412 287
37 815 869
38 366 229
39 795 67
40 626 639
41 147 603
42 947 379
43 879 60
44 57 284
45 164 265
46 829 854
47 214 830
48 121 269
49 847 739
50 440 930
51 665 468
52 502 352
53 63 834
54 915 626
55 68 999
56 458 249
57 320 969
58 353 156
59 134 899
60 343 922
61 938 103
62 480 230
63 934 37
64 98 581
65 320 793
66 227 528
67 87 799
68 557 220
69 325 960
70 160 158
71 43 392
PICKUP_AND_DELIVERY_SECTION
1 0 0 0 0 0 0
2 0 0 0 0 37 0
3 0 0 0 0 38 0
4 0 0 0 0 39 0
5 0 0 0 0 40 0
6 0 0 0 0 41 0
7 0 0 0 0 42 0
8 0 0 0 0 43 0
9 0 0 0 0 44 0
10 0 0 0 0 45 0
11 0 0 0 0 46 0
12 0 0 0 0 47 0
13 0 0 0 0 48 0
14 0 0 0 0 49 0
15 0 0 0 0 50 0
16 0 0 0 0 51 0
17 0 0 0 0 52 0
18 0 0 0 0 53 0
19 0 0 0 0 54 0
20 0 0 0 0 55 0
21 0 0 0 0 56 0
22 0 0 0 0 57 0
23 0 0 0 0 58 0
24 0 0 0 0 59 0
25 0 0 0 0 60 0
26 0 0 0 0 61 0
27 0 0 0 0 62 0
28 0 0 0 0 63 0
29 0 0 0 0 64 0
30 0 0 0 0 65 0
31 0 0 0 0 66 0
32 0 0 0 0 67 0
33 0 0 0 0 68 0
34 0 0 0 0 69 0
35 0 0 0 0 70 0
36 0 0 0 0 71 0
37 0 0 0 0 0 2
38 0 0 0 0 0 3
39 0 0 0 0 0 4
40 0 0 0 0 0 5
41 0 0 0 0 0 6
42 0 0 0 0 0 7
43 0 0 0 0 0 8
44 0 0 0 0 0 9
45 0 0 0 0 0 10
46 0 0 0 0 0 11
47 0 0 0 0 0 12
48 0 0 0 0 0 13
49 0 0 0 0 0 14
50 0 0 0 0 0 15
51 0 0 0 0 0 16
52 0 0 0 0 0 17
53 0 0 0 0 0 18
54 0 0 0 0 0 19
55 0 0 0 0 0 20
56 0 0 0 0 0 21
57 0 0 0 0 0 22
58 0 0 0 0 0 23
59 0 0 0 0 0 24
60 0 0 0 0 0 25
61 0 0 0 0 0 26
62 0 0 0 0 0 27
63 0 0 0 0 0 28
64 0 0 0 0 0 29
65 0 0 0 0 0 30
66 0 0 0 0 0 31
67 0 0 0 0 0 32
68 0 0 0 0 0 33
69 0 0 0 0 0 34
70 0 0 0 0 0 35
71 0 0 0 0 0 36
DEPOT_SECTION
1 
-1
EOF
